r = [
0,12,3,11,3,12,12,12,10,6,7,0
];
p = [
0,16,9,22,10,7,2,23,16,22,9,0
];
e = [
0,13,12,3,13,1,15,10,4,9,9,0
];
d = [
0,133,119,131,124,141,130,130,128,132,131,142
];
d_bar = [
0,135,120,133,125,142,131,132,130,134,132,142
];
w = [
0,6.5,12,1.5,13,1,15,5,2,4.5,9,0
];
